sat
(= |goto_symex::&92;guard#1| true)
(= |goto_symex::&92;guard#2| false)
(= |memory_model::choice_rf_1_32_0_9_T_0| false)
(= |memory_model::choice_rf_1_32_2_17_T_1| true)
(= |memory_model::choice_rf_2_16_0_9_T_2| true)
(= |memory_model::choice_rf_2_16_1_33_T_3| false)
(= |memory_model::choice_rf_0_36_0_7_T_4| false)
(= |memory_model::choice_rf_0_36_0_32_T_5| true)
(= |memory_model::choice_rf_0_65_0_15_F_6| false)
(= |memory_model::choice_rf_0_65_1_17_F_7| false)
(= |memory_model::choice_rf_0_65_2_0_F_8| true)
(= |memory_model::choice_rf_1_16_0_15_F_9| false)
(= |memory_model::choice_rf_1_16_2_0_F_10| false)
(= |memory_model::choice_rf_0_40_0_10_F_11| false)
(= |memory_model::choice_rf_0_40_1_31_F_12| true)
(= |memory_model::choice_rf_0_40_2_15_F_13| false)
(= |memory_model::choice_rf_1_30_0_10_F_14| false)
(= |memory_model::choice_rf_1_30_2_15_F_15| true)
(= |memory_model::choice_rf_2_14_0_10_F_16| true)
(= |memory_model::choice_rf_2_14_1_31_F_17| false)
(= |memory_model::choice_rf_0_42_0_11_F_18| false)
(= |memory_model::choice_rf_0_42_0_41_F_19| true)
(= |memory_model::choice_rf_0_59_0_12_F_20| false)
(= |memory_model::choice_rf_0_80_0_12_F_21| false)
(= |memory_model::choice_rf_0_80_0_69_F_22| true)
(= |memory_model::choice_rf_0_81_0_12_F_23| false)
(= |memory_model::choice_rf_0_81_0_69_F_24| true)
(= |memory_model::choice_rf_0_43_0_16_F_25| false)
(= |memory_model::choice_rf_0_43_1_29_F_26| true)
(= |memory_model::choice_rf_0_43_2_1_F_27| false)
(= |memory_model::choice_rf_0_43_2_13_F_28| false)
(= |memory_model::choice_rf_0_63_0_16_F_29| false)
(= |memory_model::choice_rf_0_63_0_54_F_30| true)
(= |memory_model::choice_rf_0_63_1_29_F_31| false)
(= |memory_model::choice_rf_0_63_2_1_F_32| false)
(= |memory_model::choice_rf_0_63_2_13_F_33| false)
(= |memory_model::choice_rf_1_18_0_16_F_34| false)
(= |memory_model::choice_rf_1_18_0_54_F_35| false)
(= |memory_model::choice_rf_1_18_0_75_F_36| false)
(= |memory_model::choice_rf_1_18_2_1_F_37| false)
(= |memory_model::choice_rf_1_18_2_13_F_38| true)
(= |memory_model::choice_rf_2_2_0_16_F_39| false)
(= |memory_model::choice_rf_2_2_0_54_F_40| false)
(= |memory_model::choice_rf_2_2_0_75_F_41| false)
(= |memory_model::choice_rf_2_2_1_29_F_42| false)
(= |memory_model::choice_rf_2_2_2_1_F_43| true)
(= |memory_model::choice_rf_0_64_0_17_F_44| false)
(= |memory_model::choice_rf_0_62_0_18_F_45| false)
(= |memory_model::choice_rf_0_48_0_19_F_46| true)
(= |memory_model::choice_rf_0_60_0_19_F_47| false)
(= |memory_model::choice_rf_0_60_0_51_F_48| true)
(= |memory_model::choice_rf_1_3_0_19_F_49| true)
(= |memory_model::choice_rf_1_3_0_51_F_50| false)
(= |memory_model::choice_rf_1_3_0_70_F_51| false)
(= |memory_model::choice_rf_1_2_0_20_F_52| true)
(= |memory_model::choice_rf_1_22_0_20_F_53| false)
(= |memory_model::choice_rf_1_22_1_8_F_54| true)
(= |memory_model::choice_rf_1_0_0_21_F_55| true)
(= |memory_model::choice_rf_1_0_2_9_F_56| false)
(= |memory_model::choice_rf_2_6_0_21_F_57| true)
(= |memory_model::choice_rf_0_45_0_22_F_58| false)
(= |memory_model::choice_rf_0_45_1_9_F_59| true)
(= |memory_model::choice_rf_0_57_0_22_F_60| false)
(= |memory_model::choice_rf_0_57_0_50_F_61| true)
(= |memory_model::choice_rf_0_57_1_9_F_62| false)
(= |memory_model::choice_rf_1_1_0_22_F_63| false)
(= |memory_model::choice_rf_1_1_0_50_F_64| false)
(= |memory_model::choice_rf_1_1_0_68_F_65| false)
(= |memory_model::choice_rf_1_5_0_23_F_66| false)
(= |memory_model::choice_rf_1_23_0_23_F_67| false)
(= |memory_model::choice_rf_1_23_1_11_F_68| true)
(= |memory_model::choice_rf_1_4_0_24_F_69| false)
(= |memory_model::choice_rf_1_4_2_11_F_70| false)
(= |memory_model::choice_rf_2_7_0_24_F_71| false)
(= |memory_model::choice_rf_2_7_1_10_F_72| true)
(= |memory_model::choice_rf_0_47_0_27_F_73| false)
(= |memory_model::choice_rf_0_47_1_14_F_74| true)
(= |memory_model::choice_rf_0_56_0_27_F_75| false)
(= |memory_model::choice_rf_0_56_1_14_F_76| true)
(= |memory_model::choice_rf_1_7_0_27_F_77| true)
(= |memory_model::choice_rf_1_7_0_74_F_78| false)
(= |memory_model::choice_rf_1_21_0_27_F_79| false)
(= |memory_model::choice_rf_1_21_0_74_F_80| false)
(= |memory_model::choice_rf_1_21_1_14_F_81| true)
(= |memory_model::choice_rf_2_5_0_27_F_82| false)
(= |memory_model::choice_rf_2_5_0_74_F_83| false)
(= |memory_model::choice_rf_2_5_1_14_F_84| true)
(= |memory_model::choice_rf_0_49_0_28_F_85| false)
(= |memory_model::choice_rf_0_49_1_12_F_86| false)
(= |memory_model::choice_rf_0_49_1_28_F_87| true)
(= |memory_model::choice_rf_0_49_2_12_F_88| false)
(= |memory_model::choice_rf_0_61_0_28_F_89| false)
(= |memory_model::choice_rf_0_61_0_53_F_90| true)
(= |memory_model::choice_rf_0_61_1_12_F_91| false)
(= |memory_model::choice_rf_0_61_1_28_F_92| false)
(= |memory_model::choice_rf_0_61_2_12_F_93| false)
(= |memory_model::choice_rf_1_6_0_28_F_94| true)
(= |memory_model::choice_rf_1_6_0_53_F_95| false)
(= |memory_model::choice_rf_1_6_0_72_F_96| false)
(= |memory_model::choice_rf_1_6_2_12_F_97| false)
(= |memory_model::choice_rf_1_24_0_28_F_98| false)
(= |memory_model::choice_rf_1_24_0_53_F_99| false)
(= |memory_model::choice_rf_1_24_0_72_F_100| false)
(= |memory_model::choice_rf_1_24_1_12_F_101| false)
(= |memory_model::choice_rf_1_24_2_12_F_102| true)
(= |memory_model::choice_rf_2_8_0_28_F_103| false)
(= |memory_model::choice_rf_2_8_0_53_F_104| false)
(= |memory_model::choice_rf_2_8_0_72_F_105| false)
(= |memory_model::choice_rf_2_8_1_12_F_106| true)
(= |memory_model::choice_rf_2_8_1_28_F_107| false)
(= |memory_model::choice_rf_0_44_0_29_F_108| false)
(= |memory_model::choice_rf_0_44_1_15_F_109| true)
(= |memory_model::choice_rf_0_55_0_29_F_110| false)
(= |memory_model::choice_rf_0_55_1_15_F_111| true)
(= |memory_model::choice_rf_1_19_0_29_F_112| false)
(= |memory_model::choice_rf_1_19_0_73_F_113| false)
(= |memory_model::choice_rf_1_19_1_15_F_114| true)
(= |memory_model::choice_rf_2_3_0_29_F_115| false)
(= |memory_model::choice_rf_2_3_0_73_F_116| false)
(= |memory_model::choice_rf_2_3_1_15_F_117| true)
(= |memory_model::choice_rf_0_46_0_30_F_118| false)
(= |memory_model::choice_rf_0_46_1_13_F_119| false)
(= |memory_model::choice_rf_0_46_1_26_F_120| true)
(= |memory_model::choice_rf_0_46_2_10_F_121| false)
(= |memory_model::choice_rf_0_58_0_30_F_122| false)
(= |memory_model::choice_rf_0_58_0_52_F_123| true)
(= |memory_model::choice_rf_0_58_1_13_F_124| false)
(= |memory_model::choice_rf_0_58_1_26_F_125| false)
(= |memory_model::choice_rf_0_58_2_10_F_126| false)
(= |memory_model::choice_rf_1_20_0_30_F_127| false)
(= |memory_model::choice_rf_1_20_0_52_F_128| false)
(= |memory_model::choice_rf_1_20_0_71_F_129| false)
(= |memory_model::choice_rf_1_20_1_13_F_130| false)
(= |memory_model::choice_rf_1_20_2_10_F_131| true)
(= |memory_model::choice_rf_2_4_0_30_F_132| false)
(= |memory_model::choice_rf_2_4_0_52_F_133| false)
(= |memory_model::choice_rf_2_4_0_71_F_134| false)
(= |memory_model::choice_rf_2_4_1_13_F_135| true)
(= |memory_model::choice_rf_2_4_1_26_F_136| false)
(= |memory_model::choice_rf_0_67_0_13_F_137| false)
(= |memory_model::choice_rf_0_66_0_14_F_138| false)
(= |memory_model::choice_ws-ext_0_9_1_33_T_139| true)
(= |memory_model::choice_ws-ext_0_9_2_17_T_140| true)
(= |memory_model::choice_ws-ext_1_33_2_17_T_141| false)
(= |memory_model::choice_ws-ext_0_15_1_17_F_142| true)
(= |memory_model::choice_ws-ext_0_15_2_0_F_143| true)
(= |memory_model::choice_ws-ext_1_17_2_0_F_144| true)
(= |memory_model::choice_ws-ext_0_10_1_31_F_145| true)
(= |memory_model::choice_ws-ext_0_10_2_15_F_146| true)
(= |memory_model::choice_ws-ext_1_31_2_15_F_147| false)
(= |memory_model::choice_ws-ext_0_16_1_29_F_148| true)
(= |memory_model::choice_ws-ext_0_16_2_1_F_149| true)
(= |memory_model::choice_ws-ext_0_16_2_13_F_150| true)
(= |memory_model::choice_ws-ext_0_54_1_29_F_151| false)
(= |memory_model::choice_ws-ext_0_54_2_1_F_152| false)
(= |memory_model::choice_ws-ext_0_54_2_13_F_153| false)
(= |memory_model::choice_ws-ext_0_75_1_29_F_154| false)
(= |memory_model::choice_ws-ext_0_75_2_1_F_155| false)
(= |memory_model::choice_ws-ext_0_75_2_13_F_156| false)
(= |memory_model::choice_ws-ext_1_29_2_1_F_157| false)
(= |memory_model::choice_ws-ext_1_29_2_13_F_158| false)
(= |memory_model::choice_ws-ext_0_20_1_8_F_159| true)
(= |memory_model::choice_ws-ext_0_20_1_25_F_160| true)
(= |memory_model::choice_ws-ext_0_21_2_9_F_161| true)
(= |memory_model::choice_ws-ext_0_22_1_9_F_162| true)
(= |memory_model::choice_ws-ext_0_50_1_9_F_163| false)
(= |memory_model::choice_ws-ext_0_68_1_9_F_164| false)
(= |memory_model::choice_ws-ext_0_23_1_11_F_165| true)
(= |memory_model::choice_ws-ext_0_23_1_27_F_166| true)
(= |memory_model::choice_ws-ext_0_24_1_10_F_167| true)
(= |memory_model::choice_ws-ext_0_24_2_11_F_168| true)
(= |memory_model::choice_ws-ext_1_10_2_11_F_169| true)
(= |memory_model::choice_ws-ext_0_27_1_14_F_170| true)
(= |memory_model::choice_ws-ext_0_74_1_14_F_171| false)
(= |memory_model::choice_ws-ext_0_28_1_12_F_172| true)
(= |memory_model::choice_ws-ext_0_28_1_28_F_173| true)
(= |memory_model::choice_ws-ext_0_28_2_12_F_174| true)
(= |memory_model::choice_ws-ext_0_53_1_12_F_175| false)
(= |memory_model::choice_ws-ext_0_53_1_28_F_176| false)
(= |memory_model::choice_ws-ext_0_53_2_12_F_177| false)
(= |memory_model::choice_ws-ext_0_72_1_12_F_178| false)
(= |memory_model::choice_ws-ext_0_72_1_28_F_179| false)
(= |memory_model::choice_ws-ext_0_72_2_12_F_180| false)
(= |memory_model::choice_ws-ext_1_12_2_12_F_181| true)
(= |memory_model::choice_ws-ext_1_28_2_12_F_182| false)
(= |memory_model::choice_ws-ext_0_29_1_15_F_183| true)
(= |memory_model::choice_ws-ext_0_73_1_15_F_184| false)
(= |memory_model::choice_ws-ext_0_30_1_13_F_185| true)
(= |memory_model::choice_ws-ext_0_30_1_26_F_186| true)
(= |memory_model::choice_ws-ext_0_30_2_10_F_187| true)
(= |memory_model::choice_ws-ext_0_52_1_13_F_188| false)
(= |memory_model::choice_ws-ext_0_52_1_26_F_189| false)
(= |memory_model::choice_ws-ext_0_52_2_10_F_190| false)
(= |memory_model::choice_ws-ext_0_71_1_13_F_191| false)
(= |memory_model::choice_ws-ext_0_71_1_26_F_192| false)
(= |memory_model::choice_ws-ext_0_71_2_10_F_193| false)
(= |memory_model::choice_ws-ext_1_13_2_10_F_194| true)
(= |memory_model::choice_ws-ext_1_26_2_10_F_195| false)
(= |main$tmp_guard0#3| #b00000001)
(= |__CPROVER_next_thread_id#3| #b00000000000000000000000000000001)
(= |__unbuffered_cnt#2| #b00000000000000000000000000000010)
(= |y$w_buff0_used#2| #b00000000)
(= |y$r_buff0_thd0#2| #b00000000)
(= |y$w_buff0#2| #b00000000000000000000000000000010)
(= |y$w_buff1_used#2| #b00000000)
(= |y$r_buff1_thd0#2| #b00000000)
(= |y$w_buff1#2| #b00000000000000000000000000000000)
(= |y#2| #b00000000000000000000000000000010)
(= |y#4| #b00000000000000000000000000000010)
(= |y$w_buff0_used#6| #b00000000)
(= |y$w_buff1_used#6| #b00000000)
(= |y$r_buff0_thd0#8| #b00000000)
(= |y$r_buff1_thd0#7| #b00000000)
(= |nondet_symex::nondet0| #b00000000000000000000000000000000)
(= |weak$$choice0#2| #b00000000)
(= |weak$$choice0#3| #b10000000)
(= |nondet_symex::nondet1| #b10000000000000000000000000000000)
(= |weak$$choice2#2| #b00000001)
(= |weak$$choice2#3| #b10000000)
(= |y$flush_delayed#2| #b00000001)
(= |y$flush_delayed#3| #b10000000)
(= |y#6| #b00000000000000000000000000000010)
(= |y$mem_tmp#2| #b00000000000000000000000000000010)
(= |y$mem_tmp#3| #b10000000000000000000000000000000)
(= |y$w_buff0_used#11| #b00000000)
(= |y$r_buff0_thd0#11| #b00000000)
(= |y$w_buff1_used#9| #b00000000)
(= |y$r_buff1_thd0#9| #b00000000)
(= |y$w_buff0#4| #b00000000000000000000000000000010)
(= |y$w_buff1#4| #b00000000000000000000000000000000)
(= |y#9| #b00000000000000000000000000000010)
(= |y$w_buff0#10| #b00000000000000000000000000000010)
(= |y$w_buff1#10| #b00000000000000000000000000000000)
(= |y$w_buff0_used#23| #b00000000)
(= |y$w_buff1_used#17| #b00000000)
(= |y$r_buff0_thd0#33| #b00000000)
(= |y$r_buff1_thd0#19| #b00000000)
(= |x#2| #b00000000000000000000000000000010)
(= |main$tmp_guard1#2| #b00000000)
(= |main$tmp_guard1#3| #b10000000)
(= |y#13| #b00000000000000000000000000000010)
(= |y$flush_delayed#6| #b00000000)
(= |main$tmp_guard1#6| #b00000000)
(= |pthread_create::1::this_thread_id!1@0#0| #b00000000000000000000000000000000)
(= |y$w_buff0#12| #b00000000000000000000000000000000)
(= |y$w_buff0_used#31| #b00000000)
(= |y$r_buff0_thd0#38| #b00000000)
(= |y$r_buff1_thd0#21| #b00000000)
(= |y$r_buff1_thd0#22| #b10000000)
(= |y$r_buff0_thd1#2| #b00000000)
(= |y$r_buff1_thd1#2| #b00000000)
(= |y$r_buff1_thd1#3| #b10000000)
(= |y$r_buff0_thd2#2| #b00000000)
(= |y$r_buff1_thd2#2| #b00000000)
(= |y$r_buff1_thd2#3| #b10000000)
(= |y$r_buff0_thd1#4| #b00000001)
(= |x#4| #b00000000000000000000000000000001)
(= |x#5| #b10000000000000000000000000000000)
(= |y$w_buff0_used#34| #b00000001)
(= |y$r_buff0_thd1#6| #b00000001)
(= |y$w_buff0#15| #b00000000000000000000000000000010)
(= |y$w_buff1_used#22| #b00000000)
(= |y$r_buff1_thd1#5| #b00000000)
(= |y$w_buff1#13| #b00000000000000000000000000000000)
(= |y#15| #b00000000000000000000000000000001)
(= |y#17| #b00000000000000000000000000000010)
(= |y$w_buff0_used#38| #b00000000)
(= |y$w_buff1_used#26| #b00000000)
(= |y$r_buff0_thd1#12| #b00000001)
(= |y$r_buff1_thd1#10| #b00000000)
(= |__unbuffered_cnt#4| #b00000000000000000000000000000001)
(= |__unbuffered_cnt#6| #b00000000000000000000000000000010)
(= |pthread_create::1::this_thread_id!2@0#0| #b00000000000000000000000000000000)
(= |y$w_buff0_used#43| #b00000001)
(= |y$r_buff0_thd2#4| #b00000000)
(= |y$w_buff0#17| #b00000000000000000000000000000010)
(= |y$w_buff1_used#29| #b00000000)
(= |y$r_buff1_thd2#5| #b00000000)
(= |y$w_buff1#15| #b00000000000000000000000000000000)
(= |y#20| #b00000000000000000000000000000001)
(= |__unbuffered_cnt#8| #b00000000000000000000000000000000)
(= |__CPROVER_threads_exited#1$wclk$8| #b00111000)
(= |__CPROVER_threads_exited#2$rclk$8| #b11101101)
(= |__CPROVER_threads_exited#5$wclk$8| #b11101001)
(= |__CPROVER_threads_exited#4$rclk$8| #b11101000)
(= |__CPROVER_threads_exited#3$wclk$8| #b11101110)
(= |x#6$wclk$8| #b01011110)
(= |x#2$rclk$8| #b11101100)
(= |x#7$wclk$8| #b01100010)
(= |x#1$wclk$8| #b00111110)
(= |x#5$rclk$8| #b01011110)
(= |__unbuffered_cnt#7$wclk$8| #b11100001)
(= |__unbuffered_cnt#2$rclk$8| #b11100100)
(= |__unbuffered_cnt#10$wclk$8| #b11100000)
(= |__unbuffered_cnt#1$wclk$8| #b00111001)
(= |__unbuffered_cnt#4$rclk$8| #b11100001)
(= |__unbuffered_cnt#8$rclk$8| #b11100000)
(= |main$tmp_guard1#5| #b00000000)
(= |y#18$wclk$8| #b10100111)
(= |y#2$rclk$8| #b11100111)
(= |y#19$wclk$8| #b01100011)
(= |y#22$wclk$8| #b01100110)
(= |y#6$rclk$8| #b11101100)
(= |y#1$wclk$8| #b00111111)
(= |y#15$rclk$8| #b10100111)
(= |y#5$wclk$8| #b11100111)
(= |y#14$wclk$8| #b11101100)
(= |y#20$rclk$8| #b01100110)
(= |y$r_buff0_thd0#1$wclk$8| #b01000010)
(= |y$r_buff0_thd0#38$rclk$8| #b01011100)
(= |y$r_buff0_thd0#10$wclk$8| #b11100111)
(= |y$r_buff0_thd0#37$wclk$8| #b11101100)
(= |y$r_buff0_thd1#1$wclk$8| #b01000011)
(= |y$r_buff0_thd1#2$rclk$8| #b01011100)
(= |y$r_buff0_thd1#6$rclk$8| #b10100111)
(= |y$r_buff0_thd2#1$wclk$8| #b01000100)
(= |y$r_buff0_thd2#2$rclk$8| #b01011100)
(= |y$r_buff0_thd2#6$wclk$8| #b01100110)
(= |y$r_buff0_thd2#4$rclk$8| #b01100110)
(= |y$r_buff1_thd0#23$wclk$8| #b01011100)
(= |y$r_buff1_thd0#2$rclk$8| #b11100111)
(= |y$r_buff1_thd0#9$rclk$8| #b11101100)
(= |y$r_buff1_thd0#1$wclk$8| #b01000101)
(= |y$r_buff1_thd0#22$rclk$8| #b01011100)
(= |y$r_buff1_thd0#8$wclk$8| #b11100111)
(= |y$r_buff1_thd0#20$wclk$8| #b11101100)
(= |y$r_buff1_thd1#1$wclk$8| #b01000110)
(= |y$r_buff1_thd1#3$rclk$8| #b01011100)
(= |y$r_buff1_thd1#5$rclk$8| #b10100111)
(= |y$r_buff1_thd2#1$wclk$8| #b01000111)
(= |y$r_buff1_thd2#3$rclk$8| #b01011100)
(= |y$r_buff1_thd2#7$wclk$8| #b01100110)
(= |y$r_buff1_thd2#5$rclk$8| #b01100110)
(= |y$r_buff1_thd2#4$wclk$8| #b01011100)
(= |y$w_buff0#14$wclk$8| #b01011100)
(= |y$w_buff0#2$rclk$8| #b11100111)
(= |y$w_buff0#4$rclk$8| #b11101100)
(= |y$w_buff0#1$wclk$8| #b01001011)
(= |y$w_buff0#12$rclk$8| #b01011100)
(= |y$w_buff0#11$wclk$8| #b11101100)
(= |y$w_buff0#15$rclk$8| #b10100111)
(= |y$w_buff0#17$rclk$8| #b01100110)
(= |y$w_buff0_used#33$wclk$8| #b01011100)
(= |y$w_buff0_used#2$rclk$8| #b11100111)
(= |y$w_buff0_used#42$wclk$8| #b10100111)
(= |y$w_buff0_used#45$wclk$8| #b01100110)
(= |y$w_buff0_used#11$rclk$8| #b11101100)
(= |y$w_buff0_used#1$wclk$8| #b01001100)
(= |y$w_buff0_used#31$rclk$8| #b01011100)
(= |y$w_buff0_used#10$wclk$8| #b11100111)
(= |y$w_buff0_used#30$wclk$8| #b11101100)
(= |y$w_buff0_used#34$rclk$8| #b10100111)
(= |y$w_buff0_used#43$rclk$8| #b01100110)
(= |y$w_buff1#12$wclk$8| #b01011100)
(= |y$w_buff1#2$rclk$8| #b11100111)
(= |y$w_buff1#4$rclk$8| #b11101100)
(= |y$w_buff1#1$wclk$8| #b01001101)
(= |y$w_buff1#13$rclk$8| #b10100111)
(= |y$w_buff1#11$wclk$8| #b11101100)
(= |y$w_buff1#15$rclk$8| #b01100110)
(= |y$w_buff1_used#21$wclk$8| #b01011100)
(= |y$w_buff1_used#2$rclk$8| #b11100111)
(= |y$w_buff1_used#28$wclk$8| #b10100111)
(= |y$w_buff1_used#31$wclk$8| #b01100110)
(= |y$w_buff1_used#9$rclk$8| #b11101100)
(= |y$w_buff1_used#1$wclk$8| #b01001110)
(= |y$w_buff1_used#22$rclk$8| #b10100111)
(= |y$w_buff1_used#8$wclk$8| #b11100111)
(= |y$w_buff1_used#20$wclk$8| #b11101100)
(= |y$w_buff1_used#29$rclk$8| #b01100110)
(= |y$r_buff0_thd1#5$wclk$8| #b01011100)
(= |y$r_buff0_thd1#14$wclk$8| #b10100111)
(= |y$r_buff1_thd1#4$wclk$8| #b01011100)
(= |y$r_buff1_thd1#11$wclk$8| #b10100111)
(= t1$34$spwnclk$8 #b01010010)
(= t1$39$spwnclk$8 #b01011101)
(= |main::1::t2476!0@1$wclk$8| #b00000000)
(= |__CPROVER_dead_object#1$wclk$8| #b00100000)
(= |__CPROVER_deallocated#1$wclk$8| #b00110001)
(= |__CPROVER_malloc_is_new_array#1$wclk$8| #b00110010)
(= |__CPROVER_malloc_object#1$wclk$8| #b00110011)
(= |__CPROVER_malloc_size#1$wclk$8| #b00110100)
(= |__CPROVER_memory_leak#1$wclk$8| #b00110101)
(= |__CPROVER_next_thread_id#1$wclk$8| #b00110110)
(= |__CPROVER_pipe_count#1$wclk$8| #b00110111)
(= |main$tmp_guard0#1$wclk$8| #b00111010)
(= |main$tmp_guard1#1$wclk$8| #b00111011)
(= |weak$$choice0#1$wclk$8| #b00111100)
(= |weak$$choice2#1$wclk$8| #b00111101)
(= |y$flush_delayed#1$wclk$8| #b01000000)
(= |y$mem_tmp#1$wclk$8| #b01000001)
(= |y$read_delayed#1$wclk$8| #b01001001)
(= |y$read_delayed_var#1$wclk$8| #b01001010)
(= |main::1::t2475!0@1#1$wclk$8| #b01001111)
(= |__CPROVER_next_thread_id#2$wclk$8| #b01010000)
(= |main::1::t2475!0@1#2$wclk$8| #b01010001)
(= |main::1::t2476!0@1#1$wclk$8| #b01010011)
(= |__CPROVER_next_thread_id#3$rclk$8| #b01011010)
(= |__CPROVER_next_thread_id#5$wclk$8| #b01011010)
(= |main::1::t2476!0@1#2$wclk$8| #b01011100)
(= |main$tmp_guard0#2$wclk$8| #b11100100)
(= |main$tmp_guard0#3$rclk$8| #b11100101)
(= |y$r_buff0_thd0#2$rclk$8| #b11100111)
(= |main$tmp_guard1#3$rclk$8| #b11101100)
(= |y$r_buff0_thd0#11$rclk$8| #b11101100)
(= |y$mem_tmp#3$rclk$8| #b11101100)
(= |y$flush_delayed#3$rclk$8| #b11101100)
(= |weak$$choice2#3$rclk$8| #b11101100)
(= |weak$$choice0#3$rclk$8| #b11101100)
(= |main$tmp_guard1#4$wclk$8| #b11101100)
(= |y$mem_tmp#5$wclk$8| #b11101100)
(= |y$flush_delayed#7$wclk$8| #b11101100)
(= |weak$$choice2#11$wclk$8| #b11101100)
(= |weak$$choice0#4$wclk$8| #b11101100)
(= |main$tmp_guard1#5$rclk$8| #b11110010)
(= |main$tmp_guard1#6$rclk$8| #b11110011)
(= array_of.0 @fun_7)
(= |__CPROVER_threads_exited#2| @fun_5)
(= |__CPROVER_threads_exited#4| @fun_7)
(function @fun_7
 (type (Array (_ BitVec 32) (_ BitVec 1)))
 (= (@fun_7 #b00000000000000000000000000000000) #b0)
 (default #b1))
(function @fun_5
 (type (Array (_ BitVec 32) (_ BitVec 1)))
 (default #b1))

real	0m0.017s
user	0m0.014s
sys	0m0.003s
State: AC Run_time: 0.01938319206237793